
param profit := 101 202 404 202 996 1992 3984 467 934 1868 790 790 713 1426 2852 974 974 222 444 888 666 586 1172 1172 923 923 563 1126 563 689 1378 1378 425 850 1700 1275 1100 2200 4400 876 1752 2628 223 456 405 810 1620 405 147 294 
param weight := 1 2 4 2 896 1792 3584 367 734 1468 690 690 613 1226 2452 874 874 122 244 488 366 486 972 972 823 823 463 926 463 589 1178 1178 325 650 1300 975 1000 2000 4000 776 1552 2328 123 356 305 610 1220 305 47 94 
;end;
